WARNING: for repeatability, setting FPU to use double precision
============================[ Problem Statistics ]=============================
|                                                                             |
|  Number of variables:        250016                                         |
|  Number of clauses:          810461                                         |
|  Parse time:                   0.20 s                                       |
|                                                                             |
c ============================[ Search Statistics ]==============================
c | Conflicts |          ORIGINAL         |          LEARNT          | Progress |
c |           |    Vars  Clauses Literals |    Limit  Clauses Lit/Cl |          |
c ===============================================================================
c Switched to VSIDS.
c Switched to LRB.
c Switched to VSIDS.
c Switched to LRB.
c Switched to VSIDS.
c Switched to LRB.
c Switched to VSIDS.
c Switched to LRB.
c Switched to VSIDS.
c Switched to LRB.
c Switched to VSIDS.
c Switched to LRB.
c Switched to VSIDS.
c Switched to LRB.
c Switched to VSIDS.
c Switched to LRB.
c Switched to VSIDS.
c Switched to LRB.
c ===============================================================================
restarts                  : 8135
conflicts                 : 983435         (2199 /sec)
decisions                 : 355691993      (0.00 % random) (795214 /sec)
propagations              : 1584626087     (3542719 /sec)
conflict literals         : 104015980      (8.30 % deleted)

conflicts w/ DIP found    : 818918         (83.27 % of conflicts)
conflicts w/ dangerous DIP: 0              (0.00 % of conflicts)
conflicts w/ DIP-learning : 1455           (0.15 % of conflicts)
decisions on ext vars     : 3493           (0.00 % of decisions)
total ext vars            : 318         
tried delete ext vars     : 0           
deleted ext vars          : 0           
max ext vars              : 318         

Memory used               : 291.00 MB
CPU time                  : 447.291 s
DIP computation time      : 9.48313 s (2.12 % of total time)
ER_sel time               : 1.65207 s
ER_add time               : 0.001886 s
ER_delC time              : 0 s
ER_delV time              : 0 s
ER_sub time               : 1.99627 s
ER_stat time              : 0 s

SATISFIABLE
